NAME : OMNETRUN
COMMENT : 524.61
TYPE : CVRP
DIMENSION : 21
EDGE_WEIGHT_TYPE : EUC_2D
CAPACITY : 21
NODE_COORD_SECTION
1 0.107093 -0.77924
2 180.823 -716.056
3 207.661 -1258.01
4 131.422 -2562.88
5 30.9723 -3403.41
6 175.796 -4859.69
7 118.251 -5506.56
8 147.217 -5896.89
9 398.302 -185.633
10 277.245 -1871.42
11 347.006 -2256.65
12 295.115 -2895.05
13 397.489 -3342.48
14 418.174 -3802.18
15 368.548 -5252.62
16 546.546 -903.199
17 675.781 -1345.5
18 645.343 -2007.01
19 509.686 -4473.94
20 723.432 -4899.98
21 524.615 -5799.91
DEMAND_SECTION
1 0
2 1
3 1
4 1
5 1
6 1
7 1
8 1
9 1
10 1
11 1
12 1
13 1
14 1
15 1
16 1
17 1
18 1
19 1
20 1
21 1
DEPOT_SECTION
1
-1
EOF
